NAME: instance_3236
TYPE: TSP
DIMENSION: 20
EDGE_WEIGHT_TYPE: EUC_2D
NODE_COORD_SECTION
0 13.97 81.67
1 75.91 12.19
2 2.32 40.83
3 20.71 6.98
4 26.27 9.82
5 26.81 47.97
6 91.20 41.66
7 18.37 8.81
8 56.61 97.85
9 89.41 28.12
10 6.02 44.86
11 12.29 95.07
12 18.64 87.51
13 37.45 26.05
14 41.20 78.25
15 73.25 56.79
16 39.68 37.24
17 75.92 88.70
18 91.73 11.23
19 88.85 2.72
EOF
